id: 1313
name: satellites3-40-fs
group: miplib2010
method: 2

Gurobi 7.0.2 (linux64, Matlab) logging started Mon Mar 26 10:22:02 2018


Gurobi 7.0.2 (linux64) logging started Mon Mar 26 10:22:02 2018

Optimize a model with 35553 rows, 81681 columns and 291161 nonzeros
Coefficient statistics:
  Matrix range     [4e-01, 2e+05]
  Objective range  [1e+00, 1e+02]
  Bounds range     [1e+00, 2e+05]
  RHS range        [1e+00, 2e+05]
Presolve removed 7635 rows and 12070 columns
Presolve time: 0.13s
Presolved: 27918 rows, 69611 columns, 216171 nonzeros

Ordering time: 0.72s

Barrier statistics:
 AA' NZ     : 6.108e+05
 Factor NZ  : 6.974e+06 (roughly 100 MBytes of memory)
 Factor Ops : 6.595e+09 (less than 1 second per iteration)
 Threads    : 4

                  Objective                Residual
Iter       Primal          Dual         Primal    Dual     Compl     Time
   0   5.40402770e+09 -2.42536798e+06  1.67e+08 1.00e+00  7.41e+05     1s
   1   4.25472957e+09 -2.43243667e+06  1.32e+08 4.96e-01  5.98e+05     1s
   2   3.99824420e+08 -2.27443448e+06  1.24e+07 5.33e-02  5.70e+04     1s
   3   7.03366009e+07 -3.03557516e+05  2.21e+06 2.84e-14  1.06e+04     1s
   4   6.73878055e+06 -2.32690433e+05  2.11e+05 2.84e-14  1.04e+03     2s
   5   6.45902979e+05 -1.93766475e+05  2.02e+04 4.26e-14  1.06e+02     2s
   6   2.93632548e+04 -1.76995931e+05  8.93e+02 2.84e-14  5.80e+00     2s
   7   8.68791312e+03 -1.10405248e+05  2.61e+02 2.84e-14  1.87e+00     2s
   8   3.58395184e+03 -2.03711478e+04  1.08e+02 5.60e-14  4.78e-01     2s
   9   1.11219680e+03 -6.53104323e+03  3.34e+01 5.06e-14  1.41e-01     2s
  10   4.65443918e+02 -2.28544145e+03  1.44e+01 6.48e-14  5.41e-02     2s
  11   3.65330826e+02 -1.54708187e+03  1.15e+01 4.75e-14  4.13e-02     2s
  12   4.93162677e+01 -9.88603380e+02  2.32e+00 6.39e-14  1.29e-02     2s
  13  -7.38075776e+00 -7.03245658e+02  7.38e-01 6.39e-14  6.59e-03     3s
  14  -2.86140885e+01 -1.64079786e+02  2.22e-01 9.06e-14  1.36e-03     3s
  15  -3.79480660e+01 -5.03649690e+01  1.95e-02 1.90e-12  1.15e-04     3s
  16  -3.89931217e+01 -3.90700974e+01  8.26e-06 1.21e-13  6.83e-07     3s
  17  -3.89999914e+01 -3.90000196e+01  1.03e-08 1.04e-13  3.86e-10     3s
  18  -3.90000000e+01 -3.90000000e+01  2.70e-11 1.08e-13  1.60e-13     3s

Barrier solved model in 18 iterations and 3.21 seconds
Optimal objective -3.90000000e+01

Crossover log...

       0 DPushes remaining with DInf 0.0000000e+00                 3s

   19847 PPushes remaining with PInf 0.0000000e+00                 3s
    6003 PPushes remaining with PInf 0.0000000e+00                 5s
       0 PPushes remaining with PInf 0.0000000e+00                 6s

  Push phase complete: Pinf 0.0000000e+00, Dinf 2.8679281e-12      6s

Iteration    Objective       Primal Inf.    Dual Inf.      Time
   26000   -3.9000000e+01   0.000000e+00   0.000000e+00      6s
   26000   -3.9000000e+01   0.000000e+00   0.000000e+00      6s

Solved in 26000 iterations and 6.31 seconds
Optimal objective -3.900000000e+01
status: OPTIMAL
